n_res = 4;
rc = [ 30, 28, 26, 33 ];
n_tasks = 30;
d = [ 7, 3, 5, 4, 3, 4, 1, 2, 4, 7, 1, 5, 7, 3, 4, 9, 5, 6, 5, 10, 6, 7, 5, 3, 1, 6, 3, 5, 6, 6 ];
rr = [| 30, 30, 30, 30, 30, 30, 30, 30, 30, 30, 30, 30, 30, 30, 30, 30, 30, 30, 30, 30, 30, 30, 30, 30, 30, 30, 30, 30, 30, 30
      | 28, 28, 28, 28, 28, 28, 28, 28, 28, 28, 28, 28, 28, 28, 28, 28, 28, 28, 28, 28, 28, 28, 28, 28, 28, 28, 28, 28, 28, 28
      | 26, 26, 26, 26, 26, 26, 26, 26, 26, 26, 26, 26, 26, 26, 26, 26, 26, 26, 26, 26, 26, 26, 26, 26, 26, 26, 26, 26, 26, 26
      | 33, 33, 33, 33, 33, 33, 33, 33, 33, 33, 33, 33, 33, 33, 33, 33, 33, 33, 33, 33, 33, 33, 33, 33, 33, 33, 33, 33, 33, 33|];
suc = [ { 14 },
       { 5, 7, 9 },
       { 4 },
       { 6, 24 },
       { 8, 12, 18 },
       { 10 },
       { 13, 22 },
       { 11, 30 },
       { 15, 19, 25 },
       { 26 },
       { 16, 21 },
       { 15 },
       { 17, 19 },
       { 20, 22, 28 },
       { 21, 27 },
       { 24 },
       { 23, 29 },
       { 20 },
       { 21 },
       { 29 },
       { 24 },
       { 29 },
       { 27 },
       { 28 },
       { 30 },
       { 27 },
       { 28 },
       {  },
       {  },
       {  } ];
